$ Example from Ruben Martins and Ines Lynce
$ Breaking Local Symmetries in Quasigroup Completion Problems, page 3
$ The solution is unique:
$ 1 3 2 5 4
$ 2 5 4 1 3
$ 4 1 3 2 5
$ 5 4 1 3 2
$ 3 2 5 4 1
language ESSENCE' 1.0

letting n be 5
letting mat be 
 [
  [1, 0, 0, 0, 4],
  [0, 5, 0, 0, 0],
  [4, 0, 0, 2, 0],
  [0, 4, 0, 0, 0],
  [0, 0, 5, 0, 1]
 ]


